[[11, 66, 65, 38, 10, 31, 58, 72, 12, 40, 39, 9, 25], [55, 18, 50, 32, 44, 3, 24, 49, 16, 63, 23, 56], [41, 43, 42, 64, 22, 62, 28, 61, 21, 47, 69, 36, 71], [60, 70, 20, 37, 15, 57, 5, 29, 45, 48, 30, 74, 2, 73, 33, 6, 51, 68, 17], [75, 76, 26, 67, 4, 34, 46, 52, 27, 13, 54, 19, 8, 35, 7, 53, 14, 59]]